ilp_joint/output/metamorphosis_ilp.lp
Maximize
  0.00260579153233056 Z_331_0_0 + 0.00509979185666577 Z_331_0_1
   + 0.0166146935103098 Z_331_0_2 + 0.172066482493529 Z_331_0_3
   + 0.0688659 Z_629_0_0 + 0.0315769276051091 Z_629_0_1
   + 0.051517200920288 Z_629_0_2 + 0.0516639975543899 Z_629_0_3
   + 3.4634832051470002e-04 Z_660_0_0 + 0.0293121904105865 Z_660_0_1
   + 0.6378688040689049 Z_660_0_2 + 0.00867617455409178 Z_660_0_3
   + 0.0516716621993623 Z_177_0_0 + 0.0028131814249636 Z_177_0_1
   + 0.0508971410635388 Z_177_0_2 + 0.00261572362231298 Z_177_0_3 + [
   0.0177285318559557 Z_331_0_0 * Z_660_0_0
   + 0.0177285318559557 Z_331_0_1 * Z_660_0_1
   + 0.0177285318559557 Z_331_0_2 * Z_660_0_2
   + 0.0177285318559557 Z_331_0_3 * Z_660_0_3 ] / 2 
Subject To
 constraint1_3310: Z_331_0_0 + Z_331_0_1 + Z_331_0_2 + Z_331_0_3 <= 1
 constraint1_6290: Z_629_0_0 + Z_629_0_1 + Z_629_0_2 + Z_629_0_3 <= 1
 constraint1_6600: Z_660_0_0 + Z_660_0_1 + Z_660_0_2 + Z_660_0_3 <= 1
 constraint1_1770: Z_177_0_0 + Z_177_0_1 + Z_177_0_2 + Z_177_0_3 <= 1
 constraint2_3310: Z_331_0_0 <= 1
 constraint2_3311: Z_331_0_1 <= 1
 constraint2_3312: Z_331_0_2 <= 1
 constraint2_3313: Z_331_0_3 <= 1
 constraint2_6290: Z_629_0_0 <= 1
 constraint2_6291: Z_629_0_1 <= 1
 constraint2_6292: Z_629_0_2 <= 1
 constraint2_6293: Z_629_0_3 <= 1
 constraint2_6600: Z_660_0_0 <= 1
 constraint2_6601: Z_660_0_1 <= 1
 constraint2_6602: Z_660_0_2 <= 1
 constraint2_6603: Z_660_0_3 <= 1
 constraint2_1770: Z_177_0_0 <= 1
 constraint2_1771: Z_177_0_1 <= 1
 constraint2_1772: Z_177_0_2 <= 1
 constraint2_1773: Z_177_0_3 <= 1
Bounds
Binaries
 Z_331_0_0 Z_331_0_1 Z_331_0_2 Z_331_0_3 Z_629_0_0 Z_629_0_1 Z_629_0_2
 Z_629_0_3 Z_660_0_0 Z_660_0_1 Z_660_0_2 Z_660_0_3 Z_177_0_0 Z_177_0_1
 Z_177_0_2 Z_177_0_3
End
