ilp_joint/output/metamorphosis_ilp.mps
NAME metamorphosis_srl_ilp
* Max problem is converted into Min one
ROWS
 N  OBJ
 L  constraint1_3310
 L  constraint1_6290
 L  constraint1_6600
 L  constraint1_1770
 L  constraint2_3310
 L  constraint2_3311
 L  constraint2_3312
 L  constraint2_3313
 L  constraint2_6290
 L  constraint2_6291
 L  constraint2_6292
 L  constraint2_6293
 L  constraint2_6600
 L  constraint2_6601
 L  constraint2_6602
 L  constraint2_6603
 L  constraint2_1770
 L  constraint2_1771
 L  constraint2_1772
 L  constraint2_1773
COLUMNS
    MARKER    'MARKER'                 'INTORG'
    Z_331_0_0  OBJ       -2.6057915323305591e-03
    Z_331_0_0  constraint1_3310  1
    Z_331_0_0  constraint2_3310  1
    Z_331_0_1  OBJ       -5.0997918566657698e-03
    Z_331_0_1  constraint1_3310  1
    Z_331_0_1  constraint2_3311  1
    Z_331_0_2  OBJ       -1.6614693510309808e-02
    Z_331_0_2  constraint1_3310  1
    Z_331_0_2  constraint2_3312  1
    Z_331_0_3  OBJ       -1.7206648249352899e-01
    Z_331_0_3  constraint1_3310  1
    Z_331_0_3  constraint2_3313  1
    Z_629_0_0  OBJ       -6.8865899941479444e-02
    Z_629_0_0  constraint1_6290  1
    Z_629_0_0  constraint2_6290  1
    Z_629_0_1  OBJ       -3.1576927605109051e-02
    Z_629_0_1  constraint1_6290  1
    Z_629_0_1  constraint2_6291  1
    Z_629_0_2  OBJ       -5.1517200920287977e-02
    Z_629_0_2  constraint1_6290  1
    Z_629_0_2  constraint2_6292  1
    Z_629_0_3  OBJ       -5.1663997554389884e-02
    Z_629_0_3  constraint1_6290  1
    Z_629_0_3  constraint2_6293  1
    Z_660_0_0  OBJ       -3.4634832051470002e-04
    Z_660_0_0  constraint1_6600  1
    Z_660_0_0  constraint2_6600  1
    Z_660_0_1  OBJ       -2.9312190410586480e-02
    Z_660_0_1  constraint1_6600  1
    Z_660_0_1  constraint2_6601  1
    Z_660_0_2  OBJ       -6.3786880406890489e-01
    Z_660_0_2  constraint1_6600  1
    Z_660_0_2  constraint2_6602  1
    Z_660_0_3  OBJ       -8.6761745540917777e-03
    Z_660_0_3  constraint1_6600  1
    Z_660_0_3  constraint2_6603  1
    Z_177_0_0  OBJ       -5.1671662199362325e-02
    Z_177_0_0  constraint1_1770  1
    Z_177_0_0  constraint2_1770  1
    Z_177_0_1  OBJ       -2.8131814249635957e-03
    Z_177_0_1  constraint1_1770  1
    Z_177_0_1  constraint2_1771  1
    Z_177_0_2  OBJ       -5.0897141063538757e-02
    Z_177_0_2  constraint1_1770  1
    Z_177_0_2  constraint2_1772  1
    Z_177_0_3  OBJ       -2.6157236223129810e-03
    Z_177_0_3  constraint1_1770  1
    Z_177_0_3  constraint2_1773  1
    MARKER    'MARKER'                 'INTEND'
RHS
    RHS1      constraint1_3310  1
    RHS1      constraint1_6290  1
    RHS1      constraint1_6600  1
    RHS1      constraint1_1770  1
    RHS1      constraint2_3310  1
    RHS1      constraint2_3311  1
    RHS1      constraint2_3312  1
    RHS1      constraint2_3313  1
    RHS1      constraint2_6290  1
    RHS1      constraint2_6291  1
    RHS1      constraint2_6292  1
    RHS1      constraint2_6293  1
    RHS1      constraint2_6600  1
    RHS1      constraint2_6601  1
    RHS1      constraint2_6602  1
    RHS1      constraint2_6603  1
    RHS1      constraint2_1770  1
    RHS1      constraint2_1771  1
    RHS1      constraint2_1772  1
    RHS1      constraint2_1773  1
BOUNDS
 UP BND1      Z_331_0_0  1
 UP BND1      Z_331_0_1  1
 UP BND1      Z_331_0_2  1
 UP BND1      Z_331_0_3  1
 UP BND1      Z_629_0_0  1
 UP BND1      Z_629_0_1  1
 UP BND1      Z_629_0_2  1
 UP BND1      Z_629_0_3  1
 UP BND1      Z_660_0_0  1
 UP BND1      Z_660_0_1  1
 UP BND1      Z_660_0_2  1
 UP BND1      Z_660_0_3  1
 UP BND1      Z_177_0_0  1
 UP BND1      Z_177_0_1  1
 UP BND1      Z_177_0_2  1
 UP BND1      Z_177_0_3  1
QUADOBJ
    Z_331_0_0  Z_660_0_0  -8.8642659279778366e-03
    Z_331_0_1  Z_660_0_1  -8.8642659279778366e-03
    Z_331_0_2  Z_660_0_2  -8.8642659279778366e-03
    Z_331_0_3  Z_660_0_3  -8.8642659279778366e-03
ENDATA
