ilp_joint/output/metamorphosis_ilp.sol
# Solution for model metamorphosis_srl_ilp
# Objective value = 8.6296265038356956e-01
Z_389_0_0 0
Z_389_0_1 0
Z_389_0_2 1
Z_389_0_3 0
Z_389_0_4 0
